
#(C) 2019 by FIZ Karlsruhe - Leibniz Institute for Information Infrastructure, and the U.S. Secretary of
#Commerce on behalf of the United States.  All rights reserved.
data_674718-ICSD
_database_code_ICSD 674718
_audit_creation_date 2018-08-01
_chemical_name_systematic 'Tungsten carbide (2/1)'
_chemical_formula_structural 'W2 C'
_chemical_formula_sum 'C1 W2'
_chemical_name_structure_type Fe2N-zeta
_exptl_crystal_density_diffrn 16.53
_publ_section_title 'First-principles study of transition metal carbides'
loop_
_citation_id
_citation_journal_full
_citation_year
_citation_journal_volume
_citation_page_first
_citation_page_last
_citation_journal_id_ASTM
primary 'Materials Research Express' 2016 3 126502 126502 MREAC3
loop_
_publ_author_name
'Connetable, Damien'
_cell_length_a 4.761
_cell_length_b 5.243
_cell_length_c 6.113
_cell_angle_alpha 90
_cell_angle_beta 90
_cell_angle_gamma 90
_cell_volume 152.59
_cell_formula_units_Z 4
_symmetry_space_group_name_H-M 'P b c n'
_symmetry_Int_Tables_number 60
loop_
_symmetry_equiv_pos_site_id
_symmetry_equiv_pos_as_xyz
1 'x, -y, z+1/2'
2 '-x+1/2, y+1/2, z'
3 'x+1/2, y+1/2, -z+1/2'
4 '-x, -y, -z'
5 '-x, y, -z+1/2'
6 'x+1/2, -y+1/2, -z'
7 '-x+1/2, -y+1/2, z+1/2'
8 'x, y, z'
loop_
_atom_type_symbol
_atom_type_oxidation_number
W0+ 0
C0+ 0
loop_
_atom_site_label
_atom_site_type_symbol
_atom_site_symmetry_multiplicity
_atom_site_Wyckoff_symbol
_atom_site_fract_x
_atom_site_fract_y
_atom_site_fract_z
_atom_site_B_iso_or_equiv
_atom_site_occupancy
_atom_site_attached_hydrogens
W1 W0+ 8 d 0.2551 0.419 0.1232 1. 1. 0
C1 C0+ 4 c 0. 0.3782 0.25 1. 1. 0
#End of TTdata_674718-ICSD