4-MoCMo-O-3-POSCAR                      
   1.00000000000000     
     8.6346869999999996    0.0000000000000000    0.0000000000000000
    -4.3173430000000002    7.4778640000000003    0.0000000000000000
     0.0000000000000000    0.0000000000000000   25.0000000000000000
   C    O    Mo   Au
     9    18    17     1
Direct
  0.9988889999999984  0.0011110000000016  0.4982510000000033
  0.9983089999999990  0.3324879999999979  0.4993479999999977
  0.9988889999999984  0.6644450000000006  0.4982510000000033
  0.3355549999999994  0.0011110000000016  0.4982510000000033
  0.3275649999999999  0.3217969999999966  0.4983099999999965
  0.3275649999999999  0.6724350000000001  0.4983089999999990
  0.6675120000000021  0.0016910000000010  0.4993479999999977
  0.6675120000000021  0.3324879999999979  0.4993479999999977
  0.6782030000000034  0.6724350000000001  0.4983099999999965
  0.0002259999999978  0.9997740000000022  0.6015200000000007
  0.0016200000000026  0.3341429999999974  0.6020910000000015
  0.0002259999999978  0.6671189999999996  0.6015200000000007
  0.3328810000000004  0.9997740000000022  0.6015200000000007
  0.3091960000000000  0.2850579999999994  0.6073499999999967
  0.3091960000000000  0.6908049999999974  0.6073499999999967
  0.6658570000000026  0.9983799999999974  0.6020899999999969
  0.6658570000000026  0.3341429999999974  0.6020910000000015
  0.7149420000000006  0.6908040000000000  0.6073499999999967
  0.9982139999999973  0.0017860000000027  0.3948439999999991
  0.0017390000000006  0.3342030000000022  0.3961129999999997
  0.9982139999999973  0.6630940000000010  0.3948439999999991
  0.3369059999999990  0.0017860000000027  0.3948439999999991
  0.3359019999999973  0.3384690000000035  0.3977119999999985
  0.3359009999999998  0.6640990000000002  0.3977119999999985
  0.6657969999999978  0.9982609999999994  0.3961129999999997
  0.6657969999999978  0.3342030000000022  0.3961139999999972
  0.6615309999999965  0.6640980000000027  0.3977119999999985
  0.1110809999999987  0.2189260000000033  0.5533130000000028
  0.1110809999999987  0.5588219999999993  0.5533130000000028
  0.1111110000000011  0.8888889999999989  0.5523510000000016
  0.4411780000000007  0.2189260000000033  0.5533130000000028
  0.4411780000000007  0.8889190000000013  0.5533130000000028
  0.7777779999999979  0.2222220000000021  0.5540220000000033
  0.7810739999999967  0.5588219999999993  0.5533130000000028
  0.7810739999999967  0.8889190000000013  0.5533130000000028
  0.2212859999999992  0.1092379999999977  0.4433160000000029
  0.2219180000000023  0.4442930000000018  0.4471190000000007
  0.2212859999999992  0.7787140000000008  0.4433160000000029
  0.5573869999999985  0.1120269999999977  0.4439009999999968
  0.5557080000000028  0.4442919999999972  0.4471190000000007
  0.5557069999999982  0.7780819999999977  0.4471190000000007
  0.8879730000000023  0.1120269999999977  0.4439009999999968
  0.8879730000000023  0.4426130000000015  0.4439009999999968
  0.8907620000000023  0.7787140000000008  0.4433160000000029
  0.4444439999999972  0.5555549999999982  0.5841289999999972
 
  0.00000000E+00  0.00000000E+00  0.00000000E+00
  0.00000000E+00  0.00000000E+00  0.00000000E+00
  0.00000000E+00  0.00000000E+00  0.00000000E+00
  0.00000000E+00  0.00000000E+00  0.00000000E+00
  0.00000000E+00  0.00000000E+00  0.00000000E+00
  0.00000000E+00  0.00000000E+00  0.00000000E+00
  0.00000000E+00  0.00000000E+00  0.00000000E+00
  0.00000000E+00  0.00000000E+00  0.00000000E+00
  0.00000000E+00  0.00000000E+00  0.00000000E+00
  0.00000000E+00  0.00000000E+00  0.00000000E+00
  0.00000000E+00  0.00000000E+00  0.00000000E+00
  0.00000000E+00  0.00000000E+00  0.00000000E+00
  0.00000000E+00  0.00000000E+00  0.00000000E+00
  0.00000000E+00  0.00000000E+00  0.00000000E+00
  0.00000000E+00  0.00000000E+00  0.00000000E+00
  0.00000000E+00  0.00000000E+00  0.00000000E+00
  0.00000000E+00  0.00000000E+00  0.00000000E+00
  0.00000000E+00  0.00000000E+00  0.00000000E+00
  0.00000000E+00  0.00000000E+00  0.00000000E+00
  0.00000000E+00  0.00000000E+00  0.00000000E+00
  0.00000000E+00  0.00000000E+00  0.00000000E+00
  0.00000000E+00  0.00000000E+00  0.00000000E+00
  0.00000000E+00  0.00000000E+00  0.00000000E+00
  0.00000000E+00  0.00000000E+00  0.00000000E+00
  0.00000000E+00  0.00000000E+00  0.00000000E+00
  0.00000000E+00  0.00000000E+00  0.00000000E+00
  0.00000000E+00  0.00000000E+00  0.00000000E+00
  0.00000000E+00  0.00000000E+00  0.00000000E+00
  0.00000000E+00  0.00000000E+00  0.00000000E+00
  0.00000000E+00  0.00000000E+00  0.00000000E+00
  0.00000000E+00  0.00000000E+00  0.00000000E+00
  0.00000000E+00  0.00000000E+00  0.00000000E+00
  0.00000000E+00  0.00000000E+00  0.00000000E+00
  0.00000000E+00  0.00000000E+00  0.00000000E+00
  0.00000000E+00  0.00000000E+00  0.00000000E+00
  0.00000000E+00  0.00000000E+00  0.00000000E+00
  0.00000000E+00  0.00000000E+00  0.00000000E+00
  0.00000000E+00  0.00000000E+00  0.00000000E+00
  0.00000000E+00  0.00000000E+00  0.00000000E+00
  0.00000000E+00  0.00000000E+00  0.00000000E+00
  0.00000000E+00  0.00000000E+00  0.00000000E+00
  0.00000000E+00  0.00000000E+00  0.00000000E+00
  0.00000000E+00  0.00000000E+00  0.00000000E+00
  0.00000000E+00  0.00000000E+00  0.00000000E+00
  0.00000000E+00  0.00000000E+00  0.00000000E+00
