4-MoCMo-O-3-POSCAR
1.0
8.634687 0.000000 0.000000
-4.317343 7.477864 0.000000
0.000000 0.000000 25.000000
C O Mo Au
9 18 17 1
direct
-0.001111 0.001111 0.498251 C
-0.001691 0.332488 0.499348 C
-0.001111 0.664445 0.498251 C
0.335555 0.001111 0.498251 C
0.327565 0.321797 0.498310 C
0.327565 0.672435 0.498309 C
0.667512 0.001691 0.499348 C
0.667512 0.332488 0.499348 C
0.678203 0.672435 0.498310 C
0.000226 -0.000226 0.601520 O
0.001620 0.334143 0.602091 O
0.000226 0.667119 0.601520 O
0.332881 -0.000226 0.601520 O
0.309196 0.285058 0.607350 O
0.309196 0.690805 0.607350 O
0.665857 -0.001620 0.602090 O
0.665857 0.334143 0.602091 O
0.714942 0.690804 0.607350 O
-0.001786 0.001786 0.394844 O
0.001739 0.334203 0.396113 O
-0.001786 0.663094 0.394844 O
0.336906 0.001786 0.394844 O
0.335902 0.338469 0.397712 O
0.335901 0.664099 0.397712 O
0.665797 -0.001739 0.396113 O
0.665797 0.334203 0.396114 O
0.661531 0.664098 0.397712 O
0.111081 0.218926 0.553313 Mo
0.111081 0.558822 0.553313 Mo
0.111111 0.888889 0.552351 Mo
0.441178 0.218926 0.553313 Mo
0.441178 0.888919 0.553313 Mo
0.777778 0.222222 0.554022 Mo
0.781074 0.558822 0.553313 Mo
0.781074 0.888919 0.553313 Mo
0.221286 0.109238 0.443316 Mo
0.221918 0.444293 0.447119 Mo
0.221286 0.778714 0.443316 Mo
0.557387 0.112027 0.443901 Mo
0.555708 0.444292 0.447119 Mo
0.555707 0.778082 0.447119 Mo
0.887973 0.112027 0.443901 Mo
0.887973 0.442613 0.443901 Mo
0.890762 0.778714 0.443316 Mo
0.444444 0.555555 0.584129 Au

0.000000 0.000000 0.000000
0.000000 0.000000 0.000000
0.000000 0.000000 0.000000
0.000000 0.000000 0.000000
0.000000 0.000000 0.000000
0.000000 0.000000 0.000000
0.000000 0.000000 0.000000
0.000000 0.000000 0.000000
0.000000 0.000000 0.000000
0.000000 0.000000 0.000000
0.000000 0.000000 0.000000
0.000000 0.000000 0.000000
0.000000 0.000000 0.000000
0.000000 0.000000 0.000000
0.000000 0.000000 0.000000
0.000000 0.000000 0.000000
0.000000 0.000000 0.000000
0.000000 0.000000 0.000000
0.000000 0.000000 0.000000
0.000000 0.000000 0.000000
0.000000 0.000000 0.000000
0.000000 0.000000 0.000000
0.000000 0.000000 0.000000
0.000000 0.000000 0.000000
0.000000 0.000000 0.000000
0.000000 0.000000 0.000000
0.000000 0.000000 0.000000
0.000000 0.000000 0.000000
0.000000 0.000000 0.000000
0.000000 0.000000 0.000000
0.000000 0.000000 0.000000
0.000000 0.000000 0.000000
0.000000 0.000000 0.000000
0.000000 0.000000 0.000000
0.000000 0.000000 0.000000
0.000000 0.000000 0.000000
0.000000 0.000000 0.000000
0.000000 0.000000 0.000000
0.000000 0.000000 0.000000
0.000000 0.000000 0.000000
0.000000 0.000000 0.000000
0.000000 0.000000 0.000000
0.000000 0.000000 0.000000
0.000000 0.000000 0.000000
0.000000 0.000000 0.000000
