
#(C) 2019 by FIZ Karlsruhe - Leibniz Institute for Information Infrastructure.  All rights reserved.
data_100599-ICSD
_database_code_ICSD 100599
_audit_creation_date 1980-01-01
_audit_update_record 2006-10-01
_chemical_name_systematic 'Hexamolybdenum hexasulfide dibromide'
_chemical_formula_structural 'Mo6 S6 Br2'
_chemical_formula_sum 'Br2 Mo6 S6'
_chemical_name_structure_type Mo3Se4
_exptl_crystal_density_diffrn 5.66
_publ_section_title

;
Etude structurale d'un thiohalogenure supraconducteur derivant du Mo(II): Mo6
S6 Br2
;
loop_
_citation_id
_citation_journal_full
_citation_year
_citation_journal_volume
_citation_page_first
_citation_page_last
_citation_journal_id_ASTM
primary 'Materials Research Bulletin' 1979 14 1505 1515 MRBUAC
loop_
_publ_author_name
'Perrin, C.'
'Chevrel, R.'
'Sergent, M.'
'Fischer, O.'
_cell_length_a 6.503(3)
_cell_length_b 6.503(3)
_cell_length_c 6.503(3)
_cell_angle_alpha 94.43(5)
_cell_angle_beta 94.43(5)
_cell_angle_gamma 94.43(5)
_cell_volume 272.41
_cell_formula_units_Z 1
_symmetry_space_group_name_H-M 'R -3 R'
_symmetry_Int_Tables_number 148
_refine_ls_R_factor_all 0.044
loop_
_symmetry_equiv_pos_site_id
_symmetry_equiv_pos_as_xyz
1 '-z, -x, -y'
2 '-y, -z, -x'
3 '-x, -y, -z'
4 'z, x, y'
5 'y, z, x'
6 'x, y, z'
loop_
_atom_type_symbol
_atom_type_oxidation_number
Mo2+ 2.33
S2- -2
Br1- -1
loop_
_atom_site_label
_atom_site_type_symbol
_atom_site_symmetry_multiplicity
_atom_site_Wyckoff_symbol
_atom_site_fract_x
_atom_site_fract_y
_atom_site_fract_z
_atom_site_B_iso_or_equiv
_atom_site_occupancy
_atom_site_attached_hydrogens
Mo1 Mo2+ 6 f 0.22024(10) 0.40792(9) 0.54803(10) . 1. 0
S1 S2- 6 f 0.37551(28) 0.13347(28) 0.71990(28) . 1. 0
Br1 Br1- 2 c 0.18894(14) 0.18894(14) 0.18894(14) . 1. 0
loop_
_atom_site_aniso_label
_atom_site_aniso_type_symbol
_atom_site_aniso_beta_11
_atom_site_aniso_beta_22
_atom_site_aniso_beta_33
_atom_site_aniso_beta_12
_atom_site_aniso_beta_13
_atom_site_aniso_beta_23
Mo1 Mo2+ 0.0019(1) 0.0019(2) 0.0023(6) 0.00014(7) 0.0007(1) 0.0013(1)
S1 S2- 0.0029(2) 0.0030(5) 0.0020(16) 0.0005(2) 0.0016(4) 0.0017(4)
Br1 Br1- 0.0039(2) 0.0039(2) 0.0039(2) 0.00006(13) 0.00006(13) 0.00006(13)
#End of TTdata_100599-ICSD