
#(C) 2019 by FIZ Karlsruhe - Leibniz Institute for Information Infrastructure.  All rights reserved.
data_153549-ICSD
_database_code_ICSD 153549
_audit_creation_date 2006-10-01
_chemical_name_systematic 'Magnesium aluminium silicide (1/1/1)'
_chemical_formula_structural 'Mg Al Si'
_chemical_formula_sum 'Al1 Mg1 Si1'
_chemical_name_structure_type TiNiSi-MgSrSi
_exptl_crystal_density_diffrn 2.43
_publ_section_title

;
Crystal structure of the orthorhombic U2 - (Al4 Mg4 Si4) precipitate in the Al
- Mg - Si alloy system and its relation to the beta' and beta" phases
;
loop_
_citation_id
_citation_journal_full
_citation_year
_citation_journal_volume
_citation_page_first
_citation_page_last
_citation_journal_id_ASTM
primary

;
Materials Science & Engineering, A: Structural Materials: Properties,
Microstructure and Processing
; 2005 390 127 138 MSAPE3
loop_
_publ_author_name
'Andersen, S.J.'
'Marioara, C.D.'
'Froseth, A.'
'Vissers, R.'
'Zandbergen, H.W.'
_cell_length_a 6.75
_cell_length_b 4.05
_cell_length_c 7.94
_cell_angle_alpha 90.
_cell_angle_beta 90.
_cell_angle_gamma 90.
_cell_volume 217.06
_cell_formula_units_Z 4
_symmetry_space_group_name_H-M 'P n m a'
_symmetry_Int_Tables_number 62
_refine_ls_R_factor_all 0.0431
loop_
_symmetry_equiv_pos_site_id
_symmetry_equiv_pos_as_xyz
1 'x+1/2, y, -z+1/2'
2 'x, -y+1/2, z'
3 '-x+1/2, y+1/2, z+1/2'
4 '-x, -y, -z'
5 '-x+1/2, -y, z+1/2'
6 '-x, y+1/2, -z'
7 'x+1/2, -y+1/2, -z+1/2'
8 'x, y, z'
loop_
_atom_type_symbol
_atom_type_oxidation_number
Mg0+ 0
Al0+ 0
Si0+ 0
loop_
_atom_site_label
_atom_site_type_symbol
_atom_site_symmetry_multiplicity
_atom_site_Wyckoff_symbol
_atom_site_fract_x
_atom_site_fract_y
_atom_site_fract_z
_atom_site_B_iso_or_equiv
_atom_site_occupancy
_atom_site_attached_hydrogens
Mg1 Mg0+ 4 c 0.0323(8) 0.25 0.6695(4) 2.64(12) 1. 0
Al1 Al0+ 4 c 0.1419(6) 0.25 0.0674(4) 3.68(14) 1. 0
Si1 Si0+ 4 c 0.2604(7) 0.25 0.3770(4) 1.92(9) 1. 0
#End of TTdata_153549-ICSD