
#(C) 2019 by FIZ Karlsruhe - Leibniz Institute for Information Infrastructure.  All rights reserved.
data_164763-ICSD
_database_code_ICSD 164763
_audit_creation_date 2010-02-01
_chemical_name_systematic 'Molybdenum antimonide (3/7) - LT'
_chemical_formula_structural 'Mo3 Sb7'
_chemical_formula_sum 'Mo3 Sb7'
_exptl_crystal_density_diffrn 8.7
_cell_measurement_temperature 17.
_publ_section_title 'Magnetic and structural phase transitions in Mo3 Sb7'
loop_
_citation_id
_citation_journal_full
_citation_year
_citation_journal_volume
_citation_page_first
_citation_page_last
_citation_journal_id_ASTM
primary 'Journal of Physics: Conference Series' 2009 150 052196-1 052196-4
JPCSDZ
loop_
_publ_author_name
'Okabe, H.'
'Yano, S.'
'Muranaka, T.'
'Akimitsu, J.'
_cell_length_a 9.555(8)
_cell_length_b 9.555(8)
_cell_length_c 9.536(8)
_cell_angle_alpha 90.
_cell_angle_beta 90.
_cell_angle_gamma 90.
_cell_volume 870.62
_cell_formula_units_Z 4
_symmetry_space_group_name_H-M 'I 4/m m m'
_symmetry_Int_Tables_number 139
_refine_ls_R_factor_all 0.092
loop_
_symmetry_equiv_pos_site_id
_symmetry_equiv_pos_as_xyz
1 'y, x, -z'
2 '-y, -x, -z'
3 '-y, x, -z'
4 'y, -x, -z'
5 '-x, y, -z'
6 'x, -y, -z'
7 'x, y, -z'
8 '-x, -y, -z'
9 '-y, -x, z'
10 'y, x, z'
11 'y, -x, z'
12 '-y, x, z'
13 'x, -y, z'
14 '-x, y, z'
15 '-x, -y, z'
16 'x, y, z'
17 'y+1/2, x+1/2, -z+1/2'
18 '-y+1/2, -x+1/2, -z+1/2'
19 '-y+1/2, x+1/2, -z+1/2'
20 'y+1/2, -x+1/2, -z+1/2'
21 '-x+1/2, y+1/2, -z+1/2'
22 'x+1/2, -y+1/2, -z+1/2'
23 'x+1/2, y+1/2, -z+1/2'
24 '-x+1/2, -y+1/2, -z+1/2'
25 '-y+1/2, -x+1/2, z+1/2'
26 'y+1/2, x+1/2, z+1/2'
27 'y+1/2, -x+1/2, z+1/2'
28 '-y+1/2, x+1/2, z+1/2'
29 'x+1/2, -y+1/2, z+1/2'
30 '-x+1/2, y+1/2, z+1/2'
31 '-x+1/2, -y+1/2, z+1/2'
32 'x+1/2, y+1/2, z+1/2'
loop_
_atom_type_symbol
_atom_type_oxidation_number
Mo0+ 0
Sb0+ 0
loop_
_atom_site_label
_atom_site_type_symbol
_atom_site_symmetry_multiplicity
_atom_site_Wyckoff_symbol
_atom_site_fract_x
_atom_site_fract_y
_atom_site_fract_z
_atom_site_B_iso_or_equiv
_atom_site_occupancy
_atom_site_attached_hydrogens
Mo1 Mo0+ 8 i 0.3440(6) 0 0 0.2 1. 0
Mo2 Mo0+ 4 e 0 0 0.348(1) 0.2 1. 0
Sb1 Sb0+ 4 d 0 0.5 0.25 0.23 1. 0
Sb2 Sb0+ 8 j 0.2463(7) 0.5 0 0.23 1. 0
Sb3 Sb0+ 16 m 0.1627(2) 0.1627(2) 0.1625(4) 0.47 1. 0
#End of TTdata_164763-ICSD