
#(C) 2019 by FIZ Karlsruhe - Leibniz Institute for Information Infrastructure.  All rights reserved.
data_169398-ICSD
_database_code_ICSD 169398
_audit_creation_date 2011-02-01
_chemical_name_systematic 'Lanthanum carbide (1/1)'
_chemical_formula_structural 'La C'
_chemical_formula_sum 'C1 La1'
_chemical_name_structure_type WC
_exptl_crystal_density_diffrn 6.09
_publ_section_title

;
Hardness calculations of 5d transition metal monocarbides with tungsten
carbide structure
;
loop_
_citation_id
_citation_journal_full
_citation_year
_citation_journal_volume
_citation_page_first
_citation_page_last
_citation_journal_id_ASTM
primary 'Physica Status Solidi B: Basic Solid State Physics' 2010 247 2161 2167
PSSBBD
loop_
_publ_author_name
'Yang Jun'
'Gao Faming'
_cell_length_a 3.784
_cell_length_b 3.784
_cell_length_c 3.321
_cell_angle_alpha 90.
_cell_angle_beta 90.
_cell_angle_gamma 120.
_cell_volume 41.18
_cell_formula_units_Z 1
_symmetry_space_group_name_H-M 'P -6 m 2'
_symmetry_Int_Tables_number 187
loop_
_symmetry_equiv_pos_site_id
_symmetry_equiv_pos_as_xyz
1 'x, x-y, -z'
2 '-x+y, y, -z'
3 '-y, -x, -z'
4 'x, x-y, z'
5 '-x+y, y, z'
6 '-y, -x, z'
7 '-x+y, -x, -z'
8 '-y, x-y, -z'
9 'x, y, -z'
10 '-x+y, -x, z'
11 '-y, x-y, z'
12 'x, y, z'
loop_
_atom_type_symbol
_atom_type_oxidation_number
La0+ 0
C0+ 0
loop_
_atom_site_label
_atom_site_type_symbol
_atom_site_symmetry_multiplicity
_atom_site_Wyckoff_symbol
_atom_site_fract_x
_atom_site_fract_y
_atom_site_fract_z
_atom_site_B_iso_or_equiv
_atom_site_occupancy
_atom_site_attached_hydrogens
La1 La0+ 1 a 0 0 0 . 1. 0
C1 C0+ 1 d 0.3333 0.6667 0.5 . 1. 0
#End of TTdata_169398-ICSD