
#(C) 2019 by FIZ Karlsruhe - Leibniz Institute for Information Infrastructure.  All rights reserved.
data_180269-ICSD
_database_code_ICSD 180269
_audit_creation_date 2011-08-01
_chemical_name_systematic
'Dinickel diphosphide tetrastrontium discandium hexaoxide'
_chemical_formula_structural '(Ni2 P2) (Sr4 Sc2 O6)'
_chemical_formula_sum 'Ni2 O6 P2 Sc2 Sr4'
_chemical_name_structure_type Sr2CuGaO3S
_exptl_crystal_density_diffrn 4.68
_publ_section_title

;
Electronic band structure and Fermi surface of new low-temperature Ni-based
superconductors: 3.3 K (Ni2 P2) (Sr4 Sc2 O6) and 2.7 K (Ni2 As2) (Sr4 Sc2 O6)
from first principles
;
loop_
_citation_id
_citation_journal_full
_citation_year
_citation_journal_volume
_citation_page_first
_citation_page_last
_citation_journal_id_ASTM
primary 'Physica B: Condensed Matter (Amsterdam, Netherlands)' 2011 406 676 682
PHYBE3
loop_
_publ_author_name
'Shein, I.R.'
'Suetin, D.V.'
'Ivanovskii, A.L.'
_cell_length_a 4.0687
_cell_length_b 4.0687
_cell_length_c 15.3563
_cell_angle_alpha 90.
_cell_angle_beta 90.
_cell_angle_gamma 90.
_cell_volume 254.21
_cell_formula_units_Z 1
_symmetry_space_group_name_H-M 'P 4/n m m Z'
_symmetry_Int_Tables_number 129
loop_
_symmetry_equiv_pos_site_id
_symmetry_equiv_pos_as_xyz
1 'y+1/2, x+1/2, -z'
2 '-y, x+1/2, -z'
3 'y+1/2, -x, -z'
4 '-y, -x, -z'
5 'x+1/2, y+1/2, -z'
6 '-x, y+1/2, -z'
7 'x+1/2, -y, -z'
8 '-x, -y, -z'
9 '-y+1/2, -x+1/2, z'
10 'y, -x+1/2, z'
11 '-y+1/2, x, z'
12 'y, x, z'
13 '-x+1/2, -y+1/2, z'
14 'x, -y+1/2, z'
15 '-x+1/2, y, z'
16 'x, y, z'
loop_
_atom_type_symbol
_atom_type_oxidation_number
Sr2+ 2
Sc3+ 3
O2- -2
Ni2+ 2
P3- -3
loop_
_atom_site_label
_atom_site_type_symbol
_atom_site_symmetry_multiplicity
_atom_site_Wyckoff_symbol
_atom_site_fract_x
_atom_site_fract_y
_atom_site_fract_z
_atom_site_B_iso_or_equiv
_atom_site_occupancy
_atom_site_attached_hydrogens
Sr1 Sr2+ 2 c 0.75 0.75 0.1772 . 1. 0
Sr2 Sr2+ 2 c 0.75 0.75 0.4114 . 1. 0
Sc1 Sc3+ 2 c 0.25 0.25 0.3019 . 1. 0
O1 O2- 4 f 0.75 0.25 0.2797 . 1. 0
O2 O2- 2 c 0.25 0.25 0.4311 . 1. 0
Ni1 Ni2+ 2 a 0.25 0.75 0 . 1. 0
P1 P3- 2 c 0.25 0.25 0.0671 . 1. 0
#End of TTdata_180269-ICSD