
#(C) 2019 by FIZ Karlsruhe - Leibniz Institute for Information Infrastructure.  All rights reserved.
data_44343-ICSD
_database_code_ICSD 44343
_audit_creation_date 2000-07-15
_audit_update_record 2004-04-01
_chemical_name_systematic 'Ruthenium boride (7/3)'
_chemical_formula_structural 'Ru7 B3'
_chemical_formula_sum 'B3 Ru7'
_chemical_name_structure_type Fe3Th7
_exptl_crystal_density_diffrn 10.8
_publ_section_title 'The crystal structure of Ru7 B3'
loop_
_citation_id
_citation_journal_full
_citation_year
_citation_journal_volume
_citation_page_first
_citation_page_last
_citation_journal_id_ASTM
primary 'Acta Chemica Scandinavica ' 1959 13 109 114 ACSAA4
loop_
_publ_author_name
'Aronsson, B.'
_cell_length_a 7.467(6)
_cell_length_b 7.467
_cell_length_c 4.71(3)
_cell_angle_alpha 90.
_cell_angle_beta 90.
_cell_angle_gamma 120.
_cell_volume 227.43
_cell_formula_units_Z 2
_symmetry_space_group_name_H-M 'P 63 m c'
_symmetry_Int_Tables_number 186
_refine_ls_R_factor_all 0.1
loop_
_symmetry_equiv_pos_site_id
_symmetry_equiv_pos_as_xyz
1 '-x, -x+y, z+1/2'
2 'x-y, -y, z+1/2'
3 'y, x, z+1/2'
4 'x-y, x, z+1/2'
5 'y, -x+y, z+1/2'
6 '-x, -y, z+1/2'
7 'x, x-y, z'
8 '-x+y, y, z'
9 '-y, -x, z'
10 '-x+y, -x, z'
11 '-y, x-y, z'
12 'x, y, z'
loop_
_atom_type_symbol
_atom_type_oxidation_number
Ru0+ 0
B0+ 0
loop_
_atom_site_label
_atom_site_type_symbol
_atom_site_symmetry_multiplicity
_atom_site_Wyckoff_symbol
_atom_site_fract_x
_atom_site_fract_y
_atom_site_fract_z
_atom_site_B_iso_or_equiv
_atom_site_occupancy
_atom_site_attached_hydrogens
Ru1 Ru0+ 6 c 0.5437(20) 0.4563 0.068(3) 0.42 1. 0
Ru2 Ru0+ 6 c 0.1219(20) -.1219 0.250(3) 0.42 1. 0
Ru3 Ru0+ 2 b 0.3333 0.6667 0.068(3) 0.42 1. 0
B1 B0+ 6 c 0.813(2) 0.187 0.330(3) 0.42 1. 0
#End of TTdata_44343-ICSD