
#(C) 2019 by FIZ Karlsruhe - Leibniz Institute for Information Infrastructure, and the U.S. Secretary of
#Commerce on behalf of the United States.  All rights reserved.
data_600060-ICSD
_database_code_ICSD 600060
_audit_creation_date 2013-02-01
_chemical_name_systematic 'Tantalum rhenium silicide (1/1/1)'
_chemical_formula_structural 'Ta Re Si'
_chemical_formula_sum 'Re1 Si1 Ta1'
_chemical_name_structure_type FeSiTi
_exptl_crystal_density_diffrn 14.66
_publ_section_title

;
Structure and superconductivity studies on ternary equiatomic silicides, M M'
Si
;
_publ_section_comment 'Cell and Type only determined'
loop_
_citation_id
_citation_journal_full
_citation_year
_citation_journal_volume
_citation_page_first
_citation_page_last
_citation_journal_id_ASTM
primary 'Bulletin of Materials Science' 1985 7 215 228 BUMSDW
loop_
_publ_author_name
'Subba Rao, G.V.'
'Wagner, K.'
'Balakrishnan, G.'
'Janaki, J.'
'Paulus, W.'
'Schoellhorn, R.'
'Subramanian, V.S.'
'Poppe, U.'
_cell_length_a 7.002(5)
_cell_length_b 11.614(5)
_cell_length_c 6.605(5)
_cell_angle_alpha 90.
_cell_angle_beta 90.
_cell_angle_gamma 90.
_cell_volume 537.13
_cell_formula_units_Z 12
_symmetry_space_group_name_H-M 'I m a 2'
_symmetry_Int_Tables_number 46
loop_
_symmetry_equiv_pos_site_id
_symmetry_equiv_pos_as_xyz
1 'x+1/2, -y, z'
2 '-x+1/2, y, z'
3 '-x, -y, z'
4 'x, y, z'
5 'x, -y+1/2, z+1/2'
6 '-x, y+1/2, z+1/2'
7 '-x+1/2, -y+1/2, z+1/2'
8 'x+1/2, y+1/2, z+1/2'
loop_
_atom_type_symbol
_atom_type_oxidation_number
Re0+ 0
Ta0+ 0
Si0+ 0
loop_
_atom_site_label
_atom_site_type_symbol
_atom_site_symmetry_multiplicity
_atom_site_Wyckoff_symbol
_atom_site_fract_x
_atom_site_fract_y
_atom_site_fract_z
_atom_site_B_iso_or_equiv
_atom_site_occupancy
_atom_site_attached_hydrogens
Re1 Re0+ 4 a 0 0 0.2501 . 1. 0
Re2 Re0+ 8 c 0.0295 0.3764 0.12 . 1. 0
Ta1 Ta0+ 4 b 0.25 0.2004 0.2964 . 1. 0
Ta2 Ta0+ 4 b 0.25 0.7793 0.2707 . 1. 0
Ta3 Ta0+ 4 b 0.25 0.9979 0.9178 . 1. 0
Si1 Si0+ 4 b 0.25 0.9747 0.5055 . 1. 0
Si2 Si0+ 8 c 0.006 0.1675 0.9953 . 1. 0
#End of TTdata_600060-ICSD
