
#(C) 2019 by FIZ Karlsruhe - Leibniz Institute for Information Infrastructure, and the U.S. Secretary of
#Commerce on behalf of the United States.  All rights reserved.
data_600713-ICSD
_database_code_ICSD 600713
_audit_creation_date 2011-02-01
_chemical_name_systematic 'Ytterbium molybdenum(II/III) sulfide  (1/6/8)'
_chemical_formula_structural 'Yb Mo6 S8'
_chemical_formula_sum 'Mo6 S8 Yb1'
_chemical_name_structure_type Chevrel-PbMo6S8
_exptl_crystal_density_diffrn 6.05
_publ_section_title
'Structural and electronic instabilities in M2+ Mo6 S8 compounds'
_publ_section_comment 'Cell and Type only determined'
loop_
_citation_id
_citation_journal_full
_citation_year
_citation_journal_volume
_citation_page_first
_citation_page_last
_citation_journal_id_ASTM
primary 'Inorganic Chemistry' 1985 24 2598 2604 INOCAJ
loop_
_publ_author_name
'Johnson, D.C.'
'Tarascon, J.M.'
'Sienko, M.J.'
_cell_length_a 9.161(3)
_cell_length_b 9.161(3)
_cell_length_c 11.385(3)
_cell_angle_alpha 90.
_cell_angle_beta 90.
_cell_angle_gamma 120.
_cell_volume 827.46
_cell_formula_units_Z 3
_symmetry_space_group_name_H-M 'R -3 H'
_symmetry_Int_Tables_number 148
loop_
_symmetry_equiv_pos_site_id
_symmetry_equiv_pos_as_xyz
1 'x-y, x, -z'
2 'y, -x+y, -z'
3 '-x, -y, -z'
4 '-x+y, -x, z'
5 '-y, x-y, z'
6 'x, y, z'
7 'x-y+2/3, x+1/3, -z+1/3'
8 'y+2/3, -x+y+1/3, -z+1/3'
9 '-x+2/3, -y+1/3, -z+1/3'
10 '-x+y+2/3, -x+1/3, z+1/3'
11 '-y+2/3, x-y+1/3, z+1/3'
12 'x+2/3, y+1/3, z+1/3'
13 'x-y+1/3, x+2/3, -z+2/3'
14 'y+1/3, -x+y+2/3, -z+2/3'
15 '-x+1/3, -y+2/3, -z+2/3'
16 '-x+y+1/3, -x+2/3, z+2/3'
17 '-y+1/3, x-y+2/3, z+2/3'
18 'x+1/3, y+2/3, z+2/3'
loop_
_atom_type_symbol
_atom_type_oxidation_number
Mo2+ 2.17
Yb3+ 3
S2- -2
loop_
_atom_site_label
_atom_site_type_symbol
_atom_site_symmetry_multiplicity
_atom_site_Wyckoff_symbol
_atom_site_fract_x
_atom_site_fract_y
_atom_site_fract_z
_atom_site_B_iso_or_equiv
_atom_site_occupancy
_atom_site_attached_hydrogens
Mo1 Mo2+ 18 f 0.159 0.177 0.401 . 1. 0
Yb1 Yb3+ 3 a 0 0 0 . 1. 0
S1 S2- 6 c 0 0 0.239 . 1. 0
S2 S2- 18 f 0.043 0.334 0.083 . 1. 0
#End of TTdata_600713-ICSD
