
#(C) 2019 by FIZ Karlsruhe - Leibniz Institute for Information Infrastructure, and the U.S. Secretary of
#Commerce on behalf of the United States.  All rights reserved.
data_602358-ICSD
_database_code_ICSD 602358
_audit_creation_date 2011-02-01
_chemical_name_systematic 'Potassium copper(I/II) sulfide (1/4/3)'
_chemical_formula_structural 'K Cu4 S3'
_chemical_formula_sum 'Cu4 K1 S3'
_chemical_name_structure_type Cu4KS3
_exptl_crystal_density_diffrn 4.61
_publ_section_title

;
Fermi level pinning in transition metal chalcogenides by electrochemical
copper intercalation in potassium tetrathiocu
;
_publ_section_comment 'Cell and Type only determined'
loop_
_citation_id
_citation_journal_full
_citation_year
_citation_journal_volume
_citation_page_first
_citation_page_last
_citation_journal_id_ASTM
primary 'Materials Research Bulletin' 1993 28 1311 1318 MRBUAC
loop_
_publ_author_name
'Schmalz, M.'
'Viola, F.'
'Schoellhorn, R.'
'Schloegl, R.'
_cell_length_a 3.891(7)
_cell_length_b 3.891(7)
_cell_length_c 9.273(1)
_cell_angle_alpha 90.
_cell_angle_beta 90.
_cell_angle_gamma 90.
_cell_volume 140.39
_cell_formula_units_Z 1
_symmetry_space_group_name_H-M 'P 4/m m m'
_symmetry_Int_Tables_number 123
loop_
_symmetry_equiv_pos_site_id
_symmetry_equiv_pos_as_xyz
1 'y, x, -z'
2 '-y, -x, -z'
3 '-y, x, -z'
4 'y, -x, -z'
5 '-x, y, -z'
6 'x, -y, -z'
7 'x, y, -z'
8 '-x, -y, -z'
9 '-y, -x, z'
10 'y, x, z'
11 'y, -x, z'
12 '-y, x, z'
13 'x, -y, z'
14 '-x, y, z'
15 '-x, -y, z'
16 'x, y, z'
loop_
_atom_type_symbol
_atom_type_oxidation_number
K1+ 1
Cu1+ 1.25
S2- -2
loop_
_atom_site_label
_atom_site_type_symbol
_atom_site_symmetry_multiplicity
_atom_site_Wyckoff_symbol
_atom_site_fract_x
_atom_site_fract_y
_atom_site_fract_z
_atom_site_B_iso_or_equiv
_atom_site_occupancy
_atom_site_attached_hydrogens
K1 K1+ 1 b 0 0 0.5 . 1. 0
Cu1 Cu1+ 4 i 0.5 0 0.25 . 1. 0
S1 S2- 1 a 0 0 0 . 1. 0
S2 S2- 2 h 0.5 0.5 0.294 . 1. 0
#End of TTdata_602358-ICSD
