
#(C) 2019 by FIZ Karlsruhe - Leibniz Institute for Information Infrastructure, and the U.S. Secretary of
#Commerce on behalf of the United States.  All rights reserved.
data_603189-ICSD
_database_code_ICSD 603189
_audit_creation_date 2011-02-01
_audit_update_record 2017-08-01
_chemical_name_systematic 'Lanthanum cobalt (3/1)'
_chemical_formula_structural 'La3 Co'
_chemical_formula_sum 'Co1 La3'
_chemical_name_structure_type Cementite-Fe3C
_exptl_crystal_density_diffrn 6.57
_publ_section_title

;
Resistivity and thermopower studies on La3X (X = Al, Sn, In, Ru, Ir, Co, Ni,
Ge, Ga) systems
;
_publ_section_comment 'Cell and Type only determined'
loop_
_citation_id
_citation_journal_full
_citation_year
_citation_journal_volume
_citation_page_first
_citation_page_last
_citation_journal_id_ASTM
primary 'Journal of Alloys and Compounds' 1993 198 165 172 JALCEU
loop_
_publ_author_name
'Garde, C.S.'
'Ray, J.'
'Chandra, G.'
_cell_length_a 7.282(7)
_cell_length_b 10.020(15)
_cell_length_c 6.594(9)
_cell_angle_alpha 90.
_cell_angle_beta 90.
_cell_angle_gamma 90.
_cell_volume 481.14
_cell_formula_units_Z 4
_symmetry_space_group_name_H-M 'P n m a'
_symmetry_Int_Tables_number 62
loop_
_symmetry_equiv_pos_site_id
_symmetry_equiv_pos_as_xyz
1 'x+1/2, y, -z+1/2'
2 'x, -y+1/2, z'
3 '-x+1/2, y+1/2, z+1/2'
4 '-x, -y, -z'
5 '-x+1/2, -y, z+1/2'
6 '-x, y+1/2, -z'
7 'x+1/2, -y+1/2, -z+1/2'
8 'x, y, z'
loop_
_atom_type_symbol
_atom_type_oxidation_number
La0+ 0
Co0+ 0
loop_
_atom_site_label
_atom_site_type_symbol
_atom_site_symmetry_multiplicity
_atom_site_Wyckoff_symbol
_atom_site_fract_x
_atom_site_fract_y
_atom_site_fract_z
_atom_site_B_iso_or_equiv
_atom_site_occupancy
_atom_site_attached_hydrogens
La1 La0+ 8 d 0.169 0.069 0.173 . 1. 0
La2 La0+ 4 c 0.046 0.25 0.643 . 1. 0
Co1 Co0+ 4 c 0.383 0.25 0.44 . 1. 0
#End of TTdata_603189-ICSD
