
#(C) 2019 by FIZ Karlsruhe - Leibniz Institute for Information Infrastructure.  All rights reserved.
data_78264-ICSD
_database_code_ICSD 78264
_audit_creation_date 1996-04-22
_audit_update_record 2013-02-01
_chemical_name_systematic 'Lanthanum nickel silicide (1/1/1)'
_chemical_formula_structural 'La Ni Si'
_chemical_formula_sum 'La1 Ni1 Si1'
_chemical_name_structure_type LaPtSi
_exptl_crystal_density_diffrn 6.1
_publ_section_title

;
Crystal structure and superconductivity in the Ni-based ternary compound
LaNiSi
;
loop_
_citation_id
_citation_journal_full
_citation_year
_citation_journal_volume
_citation_page_first
_citation_page_last
_citation_journal_id_ASTM
primary 'Physical Review B: Condensed Matter and Materials Physics' 1994 50 6523
6525 PRBMDO
loop_
_publ_author_name
'Lee, W.-H.'
'Yang, F.A.'
'Shih, C.R.'
'Yang, H.D.'
_cell_length_a 4.181(1)
_cell_length_b 4.181(1)
_cell_length_c 14.069(8)
_cell_angle_alpha 90.
_cell_angle_beta 90.
_cell_angle_gamma 90.
_cell_volume 245.94
_cell_formula_units_Z 4
_symmetry_space_group_name_H-M 'I 41 m d'
_symmetry_Int_Tables_number 109
loop_
_symmetry_equiv_pos_site_id
_symmetry_equiv_pos_as_xyz
1 'y, -x+1/2, z+1/4'
2 '-y, x+1/2, z+1/4'
3 'x, -y, z'
4 '-x, y, z'
5 '-y, -x+1/2, z+1/4'
6 'y, x+1/2, z+1/4'
7 '-x, -y, z'
8 'x, y, z'
9 'y+1/2, -x, z+3/4'
10 '-y+1/2, x, z+3/4'
11 'x+1/2, -y+1/2, z+1/2'
12 '-x+1/2, y+1/2, z+1/2'
13 '-y+1/2, -x, z+3/4'
14 'y+1/2, x, z+3/4'
15 '-x+1/2, -y+1/2, z+1/2'
16 'x+1/2, y+1/2, z+1/2'
loop_
_atom_type_symbol
_atom_type_oxidation_number
La0+ 0
Ni0+ 0
Si0+ 0
loop_
_atom_site_label
_atom_site_type_symbol
_atom_site_symmetry_multiplicity
_atom_site_Wyckoff_symbol
_atom_site_fract_x
_atom_site_fract_y
_atom_site_fract_z
_atom_site_B_iso_or_equiv
_atom_site_occupancy
_atom_site_attached_hydrogens
La1 La0+ 4 a 0 0 0 . 1. 0
Ni1 Ni0+ 4 a 0 0 0.585 . 1. 0
Si1 Si0+ 4 a 0 0 0.419 . 1. 0
#End of TTdata_78264-ICSD
