
#(C) 2019 by FIZ Karlsruhe - Leibniz Institute for Information Infrastructure.  All rights reserved.
data_96228-ICSD
_database_code_ICSD 96228
_audit_creation_date 2004-04-01
_chemical_name_systematic 'Calcium indide nitride (2/1/1)'
_chemical_formula_structural 'Ca2 In N'
_chemical_formula_sum 'Ca2 In1 N1'
_chemical_name_structure_type Sr2AuN
_exptl_crystal_density_diffrn 3.91
_publ_section_title
'The synthesis and structure of Ca2 In N, a novel ternary indium nitride'
loop_
_citation_id
_citation_journal_full
_citation_year
_citation_journal_volume
_citation_page_first
_citation_page_last
_citation_journal_id_ASTM
primary 'Journal of Alloys and Compounds' 2003 353 146 152 JALCEU
loop_
_publ_author_name
'Bailey, M.S.'
'DiSalvo, F.J.'
_cell_length_a 3.532(3)
_cell_length_b 20.204(16)
_cell_length_c 4.969(4)
_cell_angle_alpha 90
_cell_angle_beta 90
_cell_angle_gamma 90
_cell_volume 354.59
_cell_formula_units_Z 4
_symmetry_space_group_name_H-M 'C m c m'
_symmetry_Int_Tables_number 63
_refine_ls_R_factor_all 0.0391
loop_
_symmetry_equiv_pos_site_id
_symmetry_equiv_pos_as_xyz
1 '-x, y, -z+1/2'
2 '-x, -y, z+1/2'
3 '-x, y, z'
4 '-x, -y, -z'
5 'x, -y, z+1/2'
6 'x, y, -z+1/2'
7 'x, -y, -z'
8 'x, y, z'
9 '-x+1/2, y+1/2, -z+1/2'
10 '-x+1/2, -y+1/2, z+1/2'
11 '-x+1/2, y+1/2, z'
12 '-x+1/2, -y+1/2, -z'
13 'x+1/2, -y+1/2, z+1/2'
14 'x+1/2, y+1/2, -z+1/2'
15 'x+1/2, -y+1/2, -z'
16 'x+1/2, y+1/2, z'
loop_
_atom_type_symbol
_atom_type_oxidation_number
In1- -1
Ca2+ 2
N3- -3
loop_
_atom_site_label
_atom_site_type_symbol
_atom_site_symmetry_multiplicity
_atom_site_Wyckoff_symbol
_atom_site_fract_x
_atom_site_fract_y
_atom_site_fract_z
_atom_site_B_iso_or_equiv
_atom_site_occupancy
_atom_site_attached_hydrogens
In1 In1- 4 c 0 0.03863(4) 0.25 0.010(1) 1. 0
Ca1 Ca2+ 4 c 0 0.21876(11) 0.25 0.003(1) 1. 0
Ca2 Ca2+ 4 c 0 0.37994(11) 0.25 0.006(1) 1. 0
N1 N3- 4 c 0 0.80094(45) 0.25 0.007(2) 1. 0
loop_
_atom_site_aniso_label
_atom_site_aniso_type_symbol
_atom_site_aniso_U_11
_atom_site_aniso_U_22
_atom_site_aniso_U_33
_atom_site_aniso_U_12
_atom_site_aniso_U_13
_atom_site_aniso_U_23
In1 In1- 0.019(1) 0.006(1) 0.004(1) 0. 0. 0.
Ca1 Ca2+ 0.003(1) 0.003(1) 0.004(1) 0. 0. 0.
Ca2 Ca2+ 0.008(1) 0.002(1) 0.008(1) 0. 0. 0.
#End of TTdata_96228-ICSD