
#(C) 2019 by FIZ Karlsruhe - Leibniz Institute for Information Infrastructure.  All rights reserved.
data_104033-ICSD
_database_code_ICSD 104033
_audit_creation_date 2004-10-01
_audit_update_record 2011-08-01
_chemical_name_systematic 'Gallium yttrium (6/1)'
_chemical_formula_structural 'Ga6 Y'
_chemical_formula_sum 'Ga6 Y1'
_chemical_name_structure_type Ga6Pu
_exptl_crystal_density_diffrn 6.31
_publ_section_title 'Synthesis and crystal structure of the compound Y Ga6'
loop_
_citation_id
_citation_journal_full
_citation_year
_citation_journal_volume
_citation_page_first
_citation_page_last
_citation_journal_id_ASTM
primary

;
Dopovidi Akademii Nauk Ukrains'koi RSR, Seriya B: Geologichni, Khimichni ta
Biologichni Nauki
; 1985 1985 43 45 DANND6
loop_
_publ_author_name
'Gryniv, O.I.'
'Gryniv, I.A.'
'Grin', Yu. (Hrin', Yu.'
' Grin, Yu.'
' Hrin, Yu.)'
'Yarmolyuk, Ya.P.'
_cell_length_a 5.947(2)
_cell_length_b 5.947
_cell_length_c 7.549(3)
_cell_angle_alpha 90.
_cell_angle_beta 90.
_cell_angle_gamma 90.
_cell_volume 266.98
_cell_formula_units_Z 2
_symmetry_space_group_name_H-M 'P 4/n b m S'
_symmetry_Int_Tables_number 125
_refine_ls_R_factor_all 0.096
loop_
_symmetry_equiv_pos_site_id
_symmetry_equiv_pos_as_xyz
1 'y+1/2, x+1/2, z'
2 '-y+1/2, -x+1/2, z'
3 'y, x, -z'
4 '-y, -x, -z'
5 'y+1/2, -x+1/2, -z'
6 '-y+1/2, x+1/2, -z'
7 'y, -x, z'
8 '-y, x, z'
9 'x+1/2, -y+1/2, z'
10 '-x+1/2, y+1/2, z'
11 'x, -y, -z'
12 '-x, y, -z'
13 '-x+1/2, -y+1/2, -z'
14 'x+1/2, y+1/2, -z'
15 '-x, -y, z'
16 'x, y, z'
loop_
_atom_type_symbol
_atom_type_oxidation_number
Ga0+ 0
Y0+ 0
loop_
_atom_site_label
_atom_site_type_symbol
_atom_site_symmetry_multiplicity
_atom_site_Wyckoff_symbol
_atom_site_fract_x
_atom_site_fract_y
_atom_site_fract_z
_atom_site_B_iso_or_equiv
_atom_site_occupancy
_atom_site_attached_hydrogens
Ga1 Ga0+ 4 g 0 0 0.161 . 1. 0
Ga2 Ga0+ 8 m 0.6859 0.1859 0.348 . 1. 0
Y1 Y0+ 2 c 0 0.5 0 . 1. 0
#End of TTdata_104033-ICSD