
#(C) 2019 by FIZ Karlsruhe - Leibniz Institute for Information Infrastructure.  All rights reserved.
data_104607-ICSD
_database_code_ICSD 104607
_audit_creation_date 2004-10-01
_chemical_name_systematic 'Iridium zirconium (1/3)'
_chemical_formula_structural 'Ir Zr3'
_chemical_formula_sum 'Ir1 Zr3'
_chemical_name_structure_type V3S
_exptl_crystal_density_diffrn 9.41
_publ_section_title 'Zr3 Ir with tetragonal alpha-V3 S structure'
loop_
_citation_id
_citation_journal_full
_citation_year
_citation_journal_volume
_citation_page_first
_citation_page_last
_citation_journal_id_ASTM
primary 'Acta Crystallographica, Section C: Crystal Structure Communications'
1985 41 820 823 ACSCEE
loop_
_publ_author_name
'Cenzual, K.'
'Parthe, E.'
_cell_length_a 10.788(2)
_cell_length_b 10.788
_cell_length_c 5.662(1)
_cell_angle_alpha 90.
_cell_angle_beta 90.
_cell_angle_gamma 90.
_cell_volume 658.95
_cell_formula_units_Z 8
_symmetry_space_group_name_H-M 'I -4 2 m'
_symmetry_Int_Tables_number 121
_refine_ls_R_factor_all 0.06
loop_
_symmetry_equiv_pos_site_id
_symmetry_equiv_pos_as_xyz
1 '-y, -x, z'
2 'y, x, z'
3 'y, -x, -z'
4 '-y, x, -z'
5 'x, -y, -z'
6 '-x, y, -z'
7 '-x, -y, z'
8 'x, y, z'
9 '-y+1/2, -x+1/2, z+1/2'
10 'y+1/2, x+1/2, z+1/2'
11 'y+1/2, -x+1/2, -z+1/2'
12 '-y+1/2, x+1/2, -z+1/2'
13 'x+1/2, -y+1/2, -z+1/2'
14 '-x+1/2, y+1/2, -z+1/2'
15 '-x+1/2, -y+1/2, z+1/2'
16 'x+1/2, y+1/2, z+1/2'
loop_
_atom_type_symbol
_atom_type_oxidation_number
Ir0+ 0
Zr0+ 0
loop_
_atom_site_label
_atom_site_type_symbol
_atom_site_symmetry_multiplicity
_atom_site_Wyckoff_symbol
_atom_site_fract_x
_atom_site_fract_y
_atom_site_fract_z
_atom_site_B_iso_or_equiv
_atom_site_occupancy
_atom_site_attached_hydrogens
Ir1 Ir0+ 8 f 0.2919(1) 0 0 0.0079(4) 1. 0
Zr1 Zr0+ 8 g 0.3544(3) 0 0.5 0.0091(7) 1. 0
Zr2 Zr0+ 8 i 0.0952(3) 0.0952 0.2610(9) 0.0098(8) 1. 0
Zr3 Zr0+ 8 i 0.2940(2) 0.294 0.2536(8) 0.0090(7) 1. 0
#End of TTdata_104607-ICSD