
#(C) 2019 by FIZ Karlsruhe - Leibniz Institute for Information Infrastructure.  All rights reserved.
data_15058-ICSD
_database_code_ICSD 15058
_audit_creation_date 1980-01-01
_chemical_name_systematic 'Molybdenum phosphide (8/5)'
_chemical_formula_structural 'Mo8 P5'
_chemical_formula_sum 'Mo8 P5'
_exptl_crystal_density_diffrn 8.25
_publ_section_title 'The crystal structure of Mo8 P5 from twin-crystal data'
loop_
_citation_id
_citation_journal_full
_citation_year
_citation_journal_volume
_citation_page_first
_citation_page_last
_citation_journal_id_ASTM
primary 'Acta Chemica Scandinavica ' 1972 26 365 382 ACSAA4
loop_
_publ_author_name
'Johnsson, T.'
_cell_length_a 9.3992(9)
_cell_length_b 3.2088(4)
_cell_length_c 6.5369(7)
_cell_angle_alpha 90.
_cell_angle_beta 109.592(8)
_cell_angle_gamma 90.
_cell_volume 185.74
_cell_formula_units_Z 1
_symmetry_space_group_name_H-M 'P 1 m 1'
_symmetry_Int_Tables_number 6
_refine_ls_R_factor_all 0.119
loop_
_symmetry_equiv_pos_site_id
_symmetry_equiv_pos_as_xyz
1 'x, -y, z'
2 'x, y, z'
loop_
_atom_type_symbol
_atom_type_oxidation_number
Mo1+ 1.875
P3- -3
loop_
_atom_site_label
_atom_site_type_symbol
_atom_site_symmetry_multiplicity
_atom_site_Wyckoff_symbol
_atom_site_fract_x
_atom_site_fract_y
_atom_site_fract_z
_atom_site_B_iso_or_equiv
_atom_site_occupancy
_atom_site_attached_hydrogens
Mo1 Mo1+ 1 a 0 0 0 -.54 1. 0
Mo2 Mo1+ 1 a 0.7806(9) 0 0.2390(13) -.33 1. 0
Mo3 Mo1+ 1 a 0.2468(9) 0 0.7931(13) -.4 1. 0
Mo4 Mo1+ 1 a 0.3061(9) 0 0.3569(13) -.42 1. 0
Mo5 Mo1+ 1 a 0.5706(9) 0 0.7939(13) -.52 1. 0
Mo6 Mo1+ 1 b 0.0529(9) 0.5 0.3937(13) -.12 1. 0
Mo7 Mo1+ 1 b 0.7805(8) 0.5 0.6113(13) -.53 1. 0
Mo8 Mo1+ 1 b 0.4977(8) 0.5 0.1232(13) -.39 1. 0
P1 P3- 1 a 0.5831(24) 0 0.4301(35) -.1 1. 0
P2 P3- 1 a 0.9856(22) 0 0.6236(34) -.27 1. 0
P3 P3- 1 b 0.2090(23) 0.5 0.0659(34) -.2 1. 0
P4 P3- 1 b 0.3716(23) 0.5 0.6553(33) -.19 1. 0
P5 P3- 1 b 0.7858(25) 0.5 0.9813(35) -.21 1. 0
#End of TTdata_15058-ICSD
