
#(C) 2019 by FIZ Karlsruhe - Leibniz Institute for Information Infrastructure.  All rights reserved.
data_23247-ICSD
_database_code_ICSD 23247
_audit_creation_date 1980-01-01
_audit_update_record 2013-02-01
_chemical_name_systematic 'Gallium - beta'
_chemical_formula_structural Ga
_chemical_formula_sum Ga1
_exptl_crystal_density_diffrn 6.24
_cell_measurement_temperature 248.
_publ_section_title 'Structure cristalline du gallium beta'
loop_
_citation_id
_citation_journal_full
_citation_year
_citation_journal_volume
_citation_page_first
_citation_page_last
_citation_journal_id_ASTM
primary

;
Acta Crystallographica, Section B: Structural Crystallography and Crystal
Chemistry
; 1969 25 995 995 ACBCAR
loop_
_publ_author_name
'Bosio, L.'
'Defrain, A.'
'Curien, H.'
'Rimsky, A.'
_cell_length_a 2.766(8)
_cell_length_b 8.053(24)
_cell_length_c 3.332(10)
_cell_angle_alpha 90.
_cell_angle_beta 92.03(8)
_cell_angle_gamma 90.
_cell_volume 74.17
_cell_formula_units_Z 4
_symmetry_space_group_name_H-M 'C 1 2/c 1'
_symmetry_Int_Tables_number 15
_refine_ls_R_factor_all 0.08
loop_
_symmetry_equiv_pos_site_id
_symmetry_equiv_pos_as_xyz
1 'x, -y, z+1/2'
2 '-x, -y, -z'
3 '-x, y, -z+1/2'
4 'x, y, z'
5 'x+1/2, -y+1/2, z+1/2'
6 '-x+1/2, -y+1/2, -z'
7 '-x+1/2, y+1/2, -z+1/2'
8 'x+1/2, y+1/2, z'
loop_
_atom_type_symbol
_atom_type_oxidation_number
Ga0+ 0
loop_
_atom_site_label
_atom_site_type_symbol
_atom_site_symmetry_multiplicity
_atom_site_Wyckoff_symbol
_atom_site_fract_x
_atom_site_fract_y
_atom_site_fract_z
_atom_site_B_iso_or_equiv
_atom_site_occupancy
_atom_site_attached_hydrogens
Ga1 Ga0+ 4 e 0 0.131 0.25 . 1. 0
#End of TTdata_23247-ICSD
