
#(C) 2019 by FIZ Karlsruhe - Leibniz Institute for Information Infrastructure.  All rights reserved.
data_28951-ICSD
_database_code_ICSD 28951
_audit_creation_date 1984-09-06
_audit_update_record 2005-10-01
_chemical_name_systematic 'Lead molybdate'
_chemical_formula_structural 'Pb (Mo O4)'
_chemical_formula_sum 'Mo1 O4 Pb1'
_chemical_name_structure_type Scheelite-CaWO4
_chemical_name_mineral Wulfenite
_exptl_crystal_density_diffrn 6.86
_publ_section_title 'The crystal structure of wulfenite and scheelite'
loop_
_citation_id
_citation_journal_full
_citation_year
_citation_journal_volume
_citation_page_first
_citation_page_last
_citation_journal_id_ASTM
primary 'Journal of the American Chemical Society' 1920 42 85 93 JACSAT
loop_
_publ_author_name
'Dickinson, R.G.'
_cell_length_a 5.42
_cell_length_b 5.42
_cell_length_c 12.1
_cell_angle_alpha 90.
_cell_angle_beta 90.
_cell_angle_gamma 90.
_cell_volume 355.45
_cell_formula_units_Z 4
_symmetry_space_group_name_H-M 'I 41/a S'
_symmetry_Int_Tables_number 88
loop_
_symmetry_equiv_pos_site_id
_symmetry_equiv_pos_as_xyz
1 'y, -x+1/2, z+1/4'
2 '-y, x+1/2, z+1/4'
3 'y, -x, -z'
4 '-y, x, -z'
5 '-x, -y+1/2, -z+1/4'
6 'x, y+1/2, -z+1/4'
7 '-x, -y, z'
8 'x, y, z'
9 'y+1/2, -x, z+3/4'
10 '-y+1/2, x, z+3/4'
11 'y+1/2, -x+1/2, -z+1/2'
12 '-y+1/2, x+1/2, -z+1/2'
13 '-x+1/2, -y, -z+3/4'
14 'x+1/2, y, -z+3/4'
15 '-x+1/2, -y+1/2, z+1/2'
16 'x+1/2, y+1/2, z+1/2'
loop_
_atom_type_symbol
_atom_type_oxidation_number
Pb2+ 2
Mo6+ 6
O2- -2
loop_
_atom_site_label
_atom_site_type_symbol
_atom_site_symmetry_multiplicity
_atom_site_Wyckoff_symbol
_atom_site_fract_x
_atom_site_fract_y
_atom_site_fract_z
_atom_site_B_iso_or_equiv
_atom_site_occupancy
_atom_site_attached_hydrogens
Pb1 Pb2+ 4 b 0 0 0.5 . 1. 0
Mo1 Mo6+ 4 a 0 0 0 . 1. 0
#End of TTdata_28951-ICSD
