
#(C) 2019 by FIZ Karlsruhe - Leibniz Institute for Information Infrastructure.  All rights reserved.
data_37186-ICSD
_database_code_ICSD 37186
_audit_creation_date 1982-12-31
_audit_update_record 2007-04-01
_chemical_name_systematic 'Silver telluride (1/3)'
_chemical_formula_structural 'Ag Te3'
_chemical_formula_sum 'Ag1 Te3'
_exptl_crystal_density_diffrn 7.16
_publ_section_title

;
Ein neuer dreidimensionaler Tellur-Bauverband: Hochdrucksynthese und
Kristallstruktur von Ag Te3
;
loop_
_citation_id
_citation_journal_full
_citation_year
_citation_journal_volume
_citation_page_first
_citation_page_last
_citation_journal_id_ASTM
primary 'Angewandte Chemie' 1982 94 717 718 ANCEAD
loop_
_publ_author_name
'Range, K.J.'
'Zabel, M.'
'Rau, F.'
'von Krziwanik, F.'
'Marx, R.'
'Panzer, B.'
_cell_length_a 8.645
_cell_length_b 8.645
_cell_length_c 5.272
_cell_angle_alpha 90.
_cell_angle_beta 90.
_cell_angle_gamma 120.
_cell_volume 341.22
_cell_formula_units_Z 3
_symmetry_space_group_name_H-M 'R 3 m H'
_symmetry_Int_Tables_number 160
_refine_ls_R_factor_all 0.053
loop_
_symmetry_equiv_pos_site_id
_symmetry_equiv_pos_as_xyz
1 '-x+y, y, z'
2 'x, x-y, z'
3 '-y, -x, z'
4 '-x+y, -x, z'
5 '-y, x-y, z'
6 'x, y, z'
7 '-x+y+2/3, y+1/3, z+1/3'
8 'x+2/3, x-y+1/3, z+1/3'
9 '-y+2/3, -x+1/3, z+1/3'
10 '-x+y+2/3, -x+1/3, z+1/3'
11 '-y+2/3, x-y+1/3, z+1/3'
12 'x+2/3, y+1/3, z+1/3'
13 '-x+y+1/3, y+2/3, z+2/3'
14 'x+1/3, x-y+2/3, z+2/3'
15 '-y+1/3, -x+2/3, z+2/3'
16 '-x+y+1/3, -x+2/3, z+2/3'
17 '-y+1/3, x-y+2/3, z+2/3'
18 'x+1/3, y+2/3, z+2/3'
loop_
_atom_type_symbol
_atom_type_oxidation_number
Ag0+ 0
Te0+ 0
loop_
_atom_site_label
_atom_site_type_symbol
_atom_site_symmetry_multiplicity
_atom_site_Wyckoff_symbol
_atom_site_fract_x
_atom_site_fract_y
_atom_site_fract_z
_atom_site_B_iso_or_equiv
_atom_site_occupancy
_atom_site_attached_hydrogens
Ag1 Ag0+ 3 a 0 0 0 . 1. 0
Te1 Te0+ 9 b 0.1672 -.1672 0.3413 . 1. 0
#End of TTdata_37186-ICSD
