
#(C) 2019 by FIZ Karlsruhe - Leibniz Institute for Information Infrastructure.  All rights reserved.
data_42549-ICSD
_database_code_ICSD 42549
_audit_creation_date 2000-07-15
_chemical_name_systematic 'Platinum telluride bismuthide (1/1/1)'
_chemical_formula_structural 'Pt Te Bi'
_chemical_formula_sum 'Bi1 Pt1 Te1'
_chemical_name_structure_type NiSSb
_chemical_name_mineral Maslovite
_exptl_crystal_density_diffrn 12.34
_publ_section_title 'New compounds with cobaltite structure'
loop_
_citation_id
_citation_journal_full
_citation_year
_citation_journal_volume
_citation_page_first
_citation_page_last
_citation_journal_id_ASTM
primary 'Nature (London, United Kingdom)' 1963 198 382 383 NATUAS
loop_
_publ_author_name
'Hulliger, F.'
_cell_length_a 6.59
_cell_length_b 6.59
_cell_length_c 6.59
_cell_angle_alpha 90.
_cell_angle_beta 90.
_cell_angle_gamma 90.
_cell_volume 286.19
_cell_formula_units_Z 4
_symmetry_space_group_name_H-M 'P 21 3'
_symmetry_Int_Tables_number 198
loop_
_symmetry_equiv_pos_site_id
_symmetry_equiv_pos_as_xyz
1 '-z+1/2, -x, y+1/2'
2 '-y+1/2, -z, x+1/2'
3 '-x+1/2, -y, z+1/2'
4 '-z, x+1/2, -y+1/2'
5 '-y, z+1/2, -x+1/2'
6 '-x, y+1/2, -z+1/2'
7 'z+1/2, -x+1/2, -y'
8 'y+1/2, -z+1/2, -x'
9 'x+1/2, -y+1/2, -z'
10 'z, x, y'
11 'y, z, x'
12 'x, y, z'
loop_
_atom_type_symbol
_atom_type_oxidation_number
Pt0+ 0
Te0+ 0
Bi0+ 0
loop_
_atom_site_label
_atom_site_type_symbol
_atom_site_symmetry_multiplicity
_atom_site_Wyckoff_symbol
_atom_site_fract_x
_atom_site_fract_y
_atom_site_fract_z
_atom_site_B_iso_or_equiv
_atom_site_occupancy
_atom_site_attached_hydrogens
Pt1 Pt0+ 4 a 0.005 0.005 0.005 . 1. 0
Te1 Te0+ 4 a 0.627 0.627 0.627 . 1. 0
Bi1 Bi0+ 4 a 0.368 0.368 0.368 . 1. 0
#End of TTdata_42549-ICSD