
#(C) 2019 by FIZ Karlsruhe - Leibniz Institute for Information Infrastructure.  All rights reserved.
data_429727-ICSD
_database_code_ICSD 429727
_audit_creation_date 2015-08-01
_chemical_name_systematic 'Tricalcium tetrairidium tetragermanide'
_chemical_formula_structural 'Ca3 Ir4 Ge4'
_chemical_formula_sum 'Ca3 Ge4 Ir4'
_chemical_name_structure_type Na3Pt4Ge4
_exptl_crystal_density_diffrn 9.02
_cell_measurement_temperature 293.
_publ_section_title

;
Structures with stellae quadrangulae Ir4 Ge4: A3 Ir4 Ge4, (A = Ca, Sr, Eu),
Ba2 Ir4 Ge5, and Ba2 Mg Ir4 Ge4
;
loop_
_citation_id
_citation_journal_full
_citation_year
_citation_journal_volume
_citation_page_first
_citation_page_last
_citation_journal_id_ASTM
primary 'Zeitschrift fuer Anorganische und Allgemeine Chemie' 2015 641 1480 1485
ZAACAB
loop_
_publ_author_name
'Kessens, Rainer'
'Jung, Walter'
_cell_length_a 7.5824(2)
_cell_length_b 7.5824(2)
_cell_length_c 7.5824(2)
_cell_angle_alpha 90.
_cell_angle_beta 90.
_cell_angle_gamma 90.
_cell_volume 435.93
_cell_formula_units_Z 2
_symmetry_space_group_name_H-M 'I -4 3 m'
_symmetry_Int_Tables_number 217
_refine_ls_R_factor_all 0.0149
loop_
_symmetry_equiv_pos_site_id
_symmetry_equiv_pos_as_xyz
1 '-z, -y, x'
2 '-y, -x, z'
3 '-x, -z, y'
4 '-z, -x, y'
5 '-y, -z, x'
6 '-x, -y, z'
7 '-z, y, -x'
8 '-y, x, -z'
9 '-x, z, -y'
10 '-z, x, -y'
11 '-y, z, -x'
12 '-x, y, -z'
13 'z, -y, -x'
14 'y, -x, -z'
15 'x, -z, -y'
16 'z, -x, -y'
17 'y, -z, -x'
18 'x, -y, -z'
19 'z, y, x'
20 'y, x, z'
21 'x, z, y'
22 'z, x, y'
23 'y, z, x'
24 'x, y, z'
25 '-z+1/2, -y+1/2, x+1/2'
26 '-y+1/2, -x+1/2, z+1/2'
27 '-x+1/2, -z+1/2, y+1/2'
28 '-z+1/2, -x+1/2, y+1/2'
29 '-y+1/2, -z+1/2, x+1/2'
30 '-x+1/2, -y+1/2, z+1/2'
31 '-z+1/2, y+1/2, -x+1/2'
32 '-y+1/2, x+1/2, -z+1/2'
33 '-x+1/2, z+1/2, -y+1/2'
34 '-z+1/2, x+1/2, -y+1/2'
35 '-y+1/2, z+1/2, -x+1/2'
36 '-x+1/2, y+1/2, -z+1/2'
37 'z+1/2, -y+1/2, -x+1/2'
38 'y+1/2, -x+1/2, -z+1/2'
39 'x+1/2, -z+1/2, -y+1/2'
40 'z+1/2, -x+1/2, -y+1/2'
41 'y+1/2, -z+1/2, -x+1/2'
42 'x+1/2, -y+1/2, -z+1/2'
43 'z+1/2, y+1/2, x+1/2'
44 'y+1/2, x+1/2, z+1/2'
45 'x+1/2, z+1/2, y+1/2'
46 'z+1/2, x+1/2, y+1/2'
47 'y+1/2, z+1/2, x+1/2'
48 'x+1/2, y+1/2, z+1/2'
loop_
_atom_type_symbol
_atom_type_oxidation_number
Ir0+ 0
Ge0+ 0
Ca0+ 0
loop_
_atom_site_label
_atom_site_type_symbol
_atom_site_symmetry_multiplicity
_atom_site_Wyckoff_symbol
_atom_site_fract_x
_atom_site_fract_y
_atom_site_fract_z
_atom_site_B_iso_or_equiv
_atom_site_occupancy
_atom_site_attached_hydrogens
Ir1 Ir0+ 8 c 0.13386(4) 0.13386(4) 0.13386(4) 0.00535(14) 1 0
Ge1 Ge0+ 8 c 0.31229(12) 0.31229(12) 0.31229(12) 0.0075(3) 1 0
Ca1 Ca0+ 6 b 0. 0.5 0.5 0.0199(8) 1 0
loop_
_atom_site_aniso_label
_atom_site_aniso_type_symbol
_atom_site_aniso_U_11
_atom_site_aniso_U_22
_atom_site_aniso_U_33
_atom_site_aniso_U_12
_atom_site_aniso_U_13
_atom_site_aniso_U_23
Ir1 Ir0+ 0.00535(14) 0.00535(14) 0.00535(14) -0.00042(9) -0.00042(9) -0.00042(9)
Ge1 Ge0+ 0.0075(3) 0.0075(3) 0.0075(3) -0.0014(3) -0.0014(3) -0.0014(3)
Ca1 Ca0+ 0.0065(15) 0.0266(13) 0.0266(13) 0. 0. 0.
#End of TTdata_429727-ICSD