
#(C) 2019 by FIZ Karlsruhe - Leibniz Institute for Information Infrastructure.  All rights reserved.
data_43281-ICSD
_database_code_ICSD 43281
_audit_creation_date 2000-07-15
_chemical_name_systematic 'Niobium selenide (3/4)'
_chemical_formula_structural 'Nb3 Se4'
_chemical_formula_sum 'Nb3 Se4'
_chemical_name_structure_type Nb3Te4
_exptl_crystal_density_diffrn 6.55
_publ_section_title 'The crystal structures of Nb3 Se4 and Nb3 Te4'
loop_
_citation_id
_citation_journal_full
_citation_year
_citation_journal_volume
_citation_page_first
_citation_page_last
_citation_journal_id_ASTM
primary 'Acta Crystallographica' 1964 17 1568 1572 ACCRA9
loop_
_publ_author_name
'Selte, K.'
'Kjekshus, A.'
_cell_length_a 10.012
_cell_length_b 10.012
_cell_length_c 3.4707
_cell_angle_alpha 90.
_cell_angle_beta 90.
_cell_angle_gamma 120.
_cell_volume 301.29
_cell_formula_units_Z 2
_symmetry_space_group_name_H-M 'P 63/m'
_symmetry_Int_Tables_number 176
loop_
_symmetry_equiv_pos_site_id
_symmetry_equiv_pos_as_xyz
1 '-x+y, -x, -z+1/2'
2 '-y, x-y, -z+1/2'
3 'x, y, -z+1/2'
4 'x-y, x, -z'
5 'y, -x+y, -z'
6 '-x, -y, -z'
7 'x-y, x, z+1/2'
8 'y, -x+y, z+1/2'
9 '-x, -y, z+1/2'
10 '-x+y, -x, z'
11 '-y, x-y, z'
12 'x, y, z'
loop_
_atom_type_symbol
_atom_type_oxidation_number
Nb0+ 0
Se0+ 0
loop_
_atom_site_label
_atom_site_type_symbol
_atom_site_symmetry_multiplicity
_atom_site_Wyckoff_symbol
_atom_site_fract_x
_atom_site_fract_y
_atom_site_fract_z
_atom_site_B_iso_or_equiv
_atom_site_occupancy
_atom_site_attached_hydrogens
Nb1 Nb0+ 6 h 0.49 0.1 0.25 . 1. 0
Se1 Se0+ 2 c 0.6667 0.3333 0.75 . 1. 0
Se2 Se0+ 6 h 0.34 0.27 0.25 . 1. 0
#End of TTdata_43281-ICSD