
#(C) 2019 by FIZ Karlsruhe - Leibniz Institute for Information Infrastructure.  All rights reserved.
data_57480-ICSD
_database_code_ICSD 57480
_audit_creation_date 2003-10-01
_chemical_name_systematic 'Rhenium silicide (2/1)'
_chemical_formula_structural 'Re2 Si'
_chemical_formula_sum 'Re2 Si1'
_chemical_name_structure_type Re5Si3
_exptl_crystal_density_diffrn 16.
_publ_section_title 'Crystal structure and superconductivity in Re2 Si'
loop_
_citation_id
_citation_journal_full
_citation_year
_citation_journal_volume
_citation_page_first
_citation_page_last
_citation_journal_id_ASTM
primary 'Journal of the Less-Common Metals' 1991 171 171 177 JCOMAH
loop_
_publ_author_name
'Siegrist, T.'
'Greedan, J.E.'
'Garrett, J.D.'
'Gong, W.-H.'
'Stager, C.V.'
_cell_length_a 5.3898(2)
_cell_length_b 9.6019(4)
_cell_length_c 6.4444(2)
_cell_angle_alpha 90.
_cell_angle_beta 94.214(5)
_cell_angle_gamma 90.
_cell_volume 332.61
_cell_formula_units_Z 8
_symmetry_space_group_name_H-M 'P 1 21/c 1'
_symmetry_Int_Tables_number 14
_refine_ls_R_factor_all 0.092
loop_
_symmetry_equiv_pos_site_id
_symmetry_equiv_pos_as_xyz
1 'x, -y+1/2, z+1/2'
2 '-x, -y, -z'
3 '-x, y+1/2, -z+1/2'
4 'x, y, z'
loop_
_atom_type_symbol
_atom_type_oxidation_number
Re0+ 0
Si0+ 0
loop_
_atom_site_label
_atom_site_type_symbol
_atom_site_symmetry_multiplicity
_atom_site_Wyckoff_symbol
_atom_site_fract_x
_atom_site_fract_y
_atom_site_fract_z
_atom_site_B_iso_or_equiv
_atom_site_occupancy
_atom_site_attached_hydrogens
Re1 Re0+ 4 e 0.26056(16) 0.20214(9) 0.04116(14) 0.140(18) 1. 0
Re2 Re0+ 4 e 0.56850(16) 0.20503(9) 0.38759(14) 0.132(19) 1. 0
Re3 Re0+ 4 e 0.59263(16) 0.05260(9) 0.82030(14) 0.15(2) 1. 0
Re4 Re0+ 4 e 0.90320(16) 0.04199(9) 0.17806(14) 0.123(9) 1. 0
Si1 Si0+ 4 e 0.9466(16) 0.1978(12) 0.7177(14) 0.31(17) 1. 0
Si2 Si0+ 4 e 0.2340(16) 0.0510(11) 0.4924(14) 0.29(18) 1. 0
#End of TTdata_57480-ICSD