
#(C) 2019 by FIZ Karlsruhe - Leibniz Institute for Information Infrastructure, and the U.S. Secretary of
#Commerce on behalf of the United States.  All rights reserved.
data_602491-ICSD
_database_code_ICSD 602491
_audit_creation_date 2010-02-01
_chemical_name_systematic 'Iron praseodymium arsenide oxide'
_chemical_formula_structural 'Fe Pr As O'
_chemical_formula_sum 'As1 Fe1 O1 Pr1'
_chemical_name_structure_type ZrCuSiAs-CuHfSi2
_exptl_crystal_density_diffrn 6.98
_publ_section_title

;
Magnetic properties of ternary lanthanoid transition metal arsenides studied
by Moessbauer and susceptibility measurements
;
_publ_section_comment 'Cell and Type only determined'
loop_
_citation_id
_citation_journal_full
_citation_year
_citation_journal_volume
_citation_page_first
_citation_page_last
_citation_journal_id_ASTM
primary 'Journal of Physics and Chemistry of Solids' 1993 54 135 144 JPCSAW
loop_
_publ_author_name
'Raffius, H.'
'Moersen, E.'
'Mosel, B.D.'
'Mueller-Warmuth, W.'
'Jeitschko, W.'
'Terbuechte, L.J.'
'Vomhof, T.'
_cell_length_a 3.9857(6)
_cell_length_b 3.9857(6)
_cell_length_c 8.618(2)
_cell_angle_alpha 90.
_cell_angle_beta 90.
_cell_angle_gamma 90.
_cell_volume 136.9
_cell_formula_units_Z 2
_symmetry_space_group_name_H-M 'P 4/n m m Z'
_symmetry_Int_Tables_number 129
loop_
_symmetry_equiv_pos_site_id
_symmetry_equiv_pos_as_xyz
1 'y+1/2, x+1/2, -z'
2 '-y, x+1/2, -z'
3 'y+1/2, -x, -z'
4 '-y, -x, -z'
5 'x+1/2, y+1/2, -z'
6 '-x, y+1/2, -z'
7 'x+1/2, -y, -z'
8 '-x, -y, -z'
9 '-y+1/2, -x+1/2, z'
10 'y, -x+1/2, z'
11 '-y+1/2, x, z'
12 'y, x, z'
13 '-x+1/2, -y+1/2, z'
14 'x, -y+1/2, z'
15 '-x+1/2, y, z'
16 'x, y, z'
loop_
_atom_type_symbol
_atom_type_oxidation_number
O2- -2
Fe2+ 2
Pr3+ 3
As3- -3
loop_
_atom_site_label
_atom_site_type_symbol
_atom_site_symmetry_multiplicity
_atom_site_Wyckoff_symbol
_atom_site_fract_x
_atom_site_fract_y
_atom_site_fract_z
_atom_site_B_iso_or_equiv
_atom_site_occupancy
_atom_site_attached_hydrogens
O1 O2- 2 a 0.75 0.25 0 . 1. 0
Fe1 Fe2+ 2 b 0.75 0.25 0.5 . 1. 0
Pr1 Pr3+ 2 c 0.25 0.25 0.14 . 1. 0
As1 As3- 2 c 0.25 0.25 0.655 . 1. 0
#End of TTdata_602491-ICSD
