
#(C) 2019 by FIZ Karlsruhe - Leibniz Institute for Information Infrastructure.  All rights reserved.
data_79575-ICSD
_database_code_ICSD 79575
_audit_creation_date 1996-10-14
_chemical_name_systematic 'Holmium nickel boride carbide (1/2/2/1)'
_chemical_formula_structural 'Ho Ni2 B2 C'
_chemical_formula_sum 'C1 B2 Ho1 Ni2'
_chemical_name_structure_type LaRh2CB2
_exptl_crystal_density_diffrn 7.99
_publ_section_title

;
Crystal chemistry of the series Ln T2 B2 C (Ln = rare earth, T = transition
element)
;
loop_
_citation_id
_citation_journal_full
_citation_year
_citation_journal_volume
_citation_page_first
_citation_page_last
_citation_journal_id_ASTM
primary 'Journal of Alloys and Compounds' 1994 216 135 139 JALCEU
loop_
_publ_author_name
'Siegrist, T.'
'Cava, R.J.'
'Krajewski, J.J.'
'Peck, W.F.jr.'
_cell_length_a 3.527(1)
_cell_length_b 3.527(1)
_cell_length_c 10.560(3)
_cell_angle_alpha 90.
_cell_angle_beta 90.
_cell_angle_gamma 90.
_cell_volume 131.36
_cell_formula_units_Z 2
_symmetry_space_group_name_H-M 'I 4/m m m'
_symmetry_Int_Tables_number 139
loop_
_symmetry_equiv_pos_site_id
_symmetry_equiv_pos_as_xyz
1 'y, x, -z'
2 '-y, -x, -z'
3 '-y, x, -z'
4 'y, -x, -z'
5 '-x, y, -z'
6 'x, -y, -z'
7 'x, y, -z'
8 '-x, -y, -z'
9 '-y, -x, z'
10 'y, x, z'
11 'y, -x, z'
12 '-y, x, z'
13 'x, -y, z'
14 '-x, y, z'
15 '-x, -y, z'
16 'x, y, z'
17 'y+1/2, x+1/2, -z+1/2'
18 '-y+1/2, -x+1/2, -z+1/2'
19 '-y+1/2, x+1/2, -z+1/2'
20 'y+1/2, -x+1/2, -z+1/2'
21 '-x+1/2, y+1/2, -z+1/2'
22 'x+1/2, -y+1/2, -z+1/2'
23 'x+1/2, y+1/2, -z+1/2'
24 '-x+1/2, -y+1/2, -z+1/2'
25 '-y+1/2, -x+1/2, z+1/2'
26 'y+1/2, x+1/2, z+1/2'
27 'y+1/2, -x+1/2, z+1/2'
28 '-y+1/2, x+1/2, z+1/2'
29 'x+1/2, -y+1/2, z+1/2'
30 '-x+1/2, y+1/2, z+1/2'
31 '-x+1/2, -y+1/2, z+1/2'
32 'x+1/2, y+1/2, z+1/2'
loop_
_atom_type_symbol
_atom_type_oxidation_number
Ho3+ 3
Ni2+ 2
B2- -2
C3- -3
loop_
_atom_site_label
_atom_site_type_symbol
_atom_site_symmetry_multiplicity
_atom_site_Wyckoff_symbol
_atom_site_fract_x
_atom_site_fract_y
_atom_site_fract_z
_atom_site_B_iso_or_equiv
_atom_site_occupancy
_atom_site_attached_hydrogens
Ho1 Ho3+ 2 a 0 0 0 . 1. 0
Ni1 Ni2+ 4 d 0.5 0 0.25 . 1. 0
B1 B2- 4 e 0 0 0.3594(10) . 1. 0
C1 C3- 2 b 0.5 0.5 0 . 1. 0
#End of TTdata_79575-ICSD
