SC111 file generated by VASPKIT         
   1.00000000000000     
     8.6444419999999997    0.0000000000000000    0.0000000000000000
    -4.3222209999999999    7.4863130000000000    0.0000000000000000
     0.0000000000000000    0.0000000000000000   25.0000000000000000
   C    O    Mo   Ag
     9    18    17     1
Direct
  0.9988480000000024  0.0011519999999976  0.4981939999999980
  0.9978419999999986  0.3322539999999989  0.4994230000000002
  0.9988480000000024  0.6643630000000016  0.4981939999999980
  0.3356369999999984  0.0011519999999976  0.4981939999999980
  0.3274919999999995  0.3216499999999982  0.4984930000000034
  0.3274919999999995  0.6725080000000005  0.4984930000000034
  0.6677460000000011  0.0021580000000014  0.4994230000000002
  0.6677460000000011  0.3322539999999989  0.4994230000000002
  0.6783500000000018  0.6725080000000005  0.4984930000000034
  0.0003620000000026  0.9996379999999974  0.6015220000000028
  0.0024439999999970  0.3345550000000017  0.6020839999999978
  0.0003630000000001  0.6673919999999995  0.6015220000000028
  0.3326080000000005  0.9996369999999999  0.6015220000000028
  0.3089530000000025  0.2845719999999972  0.6060560000000024
  0.3089530000000025  0.6910480000000021  0.6060560000000024
  0.6654449999999983  0.9975560000000030  0.6020839999999978
  0.6654449999999983  0.3345550000000017  0.6020839999999978
  0.7154280000000028  0.6910469999999975  0.6060560000000024
  0.9981340000000003  0.0018659999999997  0.3950329999999980
  0.0018990000000016  0.3342829999999992  0.3963699999999974
  0.9981340000000003  0.6629349999999974  0.3950329999999980
  0.3370650000000026  0.0018659999999997  0.3950329999999980
  0.3361019999999968  0.3388690000000025  0.3979489999999970
  0.3361000000000018  0.6638999999999982  0.3979489999999970
  0.6657170000000008  0.9981009999999984  0.3963699999999974
  0.6657170000000008  0.3342829999999992  0.3963699999999974
  0.6611309999999975  0.6638980000000032  0.3979489999999970
  0.1109409999999968  0.2181169999999995  0.5532869999999974
  0.1109409999999968  0.5594899999999967  0.5532869999999974
  0.1111110000000011  0.8888889999999989  0.5522429999999972
  0.4405100000000033  0.2181169999999995  0.5532869999999974
  0.4405100000000033  0.8890590000000032  0.5532869999999974
  0.7777779999999979  0.2222220000000021  0.5542190000000033
  0.7818830000000005  0.5594899999999967  0.5532869999999974
  0.7818830000000005  0.8890590000000032  0.5532869999999974
  0.2215800000000030  0.1098259999999982  0.4434359999999984
  0.2222890000000035  0.4444779999999966  0.4474459999999993
  0.2215789999999984  0.7784210000000016  0.4434359999999984
  0.5573819999999969  0.1120239999999981  0.4440749999999980
  0.5555220000000034  0.4444779999999966  0.4474459999999993
  0.5555220000000034  0.7777109999999965  0.4474459999999993
  0.8879760000000019  0.1120239999999981  0.4440749999999980
  0.8879760000000019  0.4426180000000031  0.4440749999999980
  0.8901740000000018  0.7784199999999970  0.4434359999999984
  0.4444439999999972  0.5555560000000028  0.5835760000000008
 
  0.00000000E+00  0.00000000E+00  0.00000000E+00
  0.00000000E+00  0.00000000E+00  0.00000000E+00
  0.00000000E+00  0.00000000E+00  0.00000000E+00
  0.00000000E+00  0.00000000E+00  0.00000000E+00
  0.00000000E+00  0.00000000E+00  0.00000000E+00
  0.00000000E+00  0.00000000E+00  0.00000000E+00
  0.00000000E+00  0.00000000E+00  0.00000000E+00
  0.00000000E+00  0.00000000E+00  0.00000000E+00
  0.00000000E+00  0.00000000E+00  0.00000000E+00
  0.00000000E+00  0.00000000E+00  0.00000000E+00
  0.00000000E+00  0.00000000E+00  0.00000000E+00
  0.00000000E+00  0.00000000E+00  0.00000000E+00
  0.00000000E+00  0.00000000E+00  0.00000000E+00
  0.00000000E+00  0.00000000E+00  0.00000000E+00
  0.00000000E+00  0.00000000E+00  0.00000000E+00
  0.00000000E+00  0.00000000E+00  0.00000000E+00
  0.00000000E+00  0.00000000E+00  0.00000000E+00
  0.00000000E+00  0.00000000E+00  0.00000000E+00
  0.00000000E+00  0.00000000E+00  0.00000000E+00
  0.00000000E+00  0.00000000E+00  0.00000000E+00
  0.00000000E+00  0.00000000E+00  0.00000000E+00
  0.00000000E+00  0.00000000E+00  0.00000000E+00
  0.00000000E+00  0.00000000E+00  0.00000000E+00
  0.00000000E+00  0.00000000E+00  0.00000000E+00
  0.00000000E+00  0.00000000E+00  0.00000000E+00
  0.00000000E+00  0.00000000E+00  0.00000000E+00
  0.00000000E+00  0.00000000E+00  0.00000000E+00
  0.00000000E+00  0.00000000E+00  0.00000000E+00
  0.00000000E+00  0.00000000E+00  0.00000000E+00
  0.00000000E+00  0.00000000E+00  0.00000000E+00
  0.00000000E+00  0.00000000E+00  0.00000000E+00
  0.00000000E+00  0.00000000E+00  0.00000000E+00
  0.00000000E+00  0.00000000E+00  0.00000000E+00
  0.00000000E+00  0.00000000E+00  0.00000000E+00
  0.00000000E+00  0.00000000E+00  0.00000000E+00
  0.00000000E+00  0.00000000E+00  0.00000000E+00
  0.00000000E+00  0.00000000E+00  0.00000000E+00
  0.00000000E+00  0.00000000E+00  0.00000000E+00
  0.00000000E+00  0.00000000E+00  0.00000000E+00
  0.00000000E+00  0.00000000E+00  0.00000000E+00
  0.00000000E+00  0.00000000E+00  0.00000000E+00
  0.00000000E+00  0.00000000E+00  0.00000000E+00
  0.00000000E+00  0.00000000E+00  0.00000000E+00
  0.00000000E+00  0.00000000E+00  0.00000000E+00
  0.00000000E+00  0.00000000E+00  0.00000000E+00
