SC111 file generated by VASPKIT
1.0
8.644442 0.000000 0.000000
-4.322221 7.486313 0.000000
0.000000 0.000000 25.000000
C O Mo Ag
9 18 17 1
direct
0.998848 0.001152 0.498194 C
-0.002158 0.332254 0.499423 C
0.998848 0.664363 0.498194 C
0.335637 0.001152 0.498194 C
0.327492 0.321650 0.498493 C
0.327492 0.672508 0.498493 C
0.667746 0.002158 0.499423 C
0.667746 0.332254 0.499423 C
0.678350 0.672508 0.498493 C
0.000362 -0.000362 0.601522 O
0.002444 0.334555 0.602084 O
0.000363 0.667392 0.601522 O
0.332608 -0.000363 0.601522 O
0.308953 0.284572 0.606056 O
0.308953 0.691048 0.606056 O
0.665445 -0.002444 0.602084 O
0.665445 0.334555 0.602084 O
0.715428 0.691047 0.606056 O
0.998134 0.001866 0.395033 O
0.001899 0.334283 0.396370 O
0.998134 0.662935 0.395033 O
0.337065 0.001866 0.395033 O
0.336102 0.338869 0.397949 O
0.336100 0.663900 0.397949 O
0.665717 -0.001899 0.396370 O
0.665717 0.334283 0.396370 O
0.661131 0.663898 0.397949 O
0.110941 0.218117 0.553287 Mo
0.110941 0.559490 0.553287 Mo
0.111111 0.888889 0.552243 Mo
0.440510 0.218117 0.553287 Mo
0.440510 0.889059 0.553287 Mo
0.777778 0.222222 0.554219 Mo
0.781883 0.559490 0.553287 Mo
0.781883 0.889059 0.553287 Mo
0.221580 0.109826 0.443436 Mo
0.222289 0.444478 0.447446 Mo
0.221579 0.778421 0.443436 Mo
0.557382 0.112024 0.444075 Mo
0.555522 0.444478 0.447446 Mo
0.555522 0.777711 0.447446 Mo
0.887976 0.112024 0.444075 Mo
0.887976 0.442618 0.444075 Mo
0.890174 0.778420 0.443436 Mo
0.444444 0.555556 0.583576 Ag
